n = 80;
rows = 226;
supports = [|
  {1},{1},
 |{1},8..74,
 |{2},{2},
 |{2},9..75,
 |{3},{3},
 |{3},10..76,
 |{4},{4},
 |{4},11..77,
 |{5},{5},
 |{5},12..78,
 |{6},{6},
 |{6},13..79,
 |{7},{7},
 |{7},14..80,
 |{8},{8},
 |{8},{1},
 |{8},15..80,
 |{9},{9},
 |{9},1..2,
 |{9},16..80,
 |{10},{10},
 |{10},1..3,
 |{10},17..80,
 |{11},{11},
 |{11},1..4,
 |{11},18..80,
 |{12},{12},
 |{12},1..5,
 |{12},19..80,
 |{13},{13},
 |{13},1..6,
 |{13},20..80,
 |{14},{14},
 |{14},1..7,
 |{14},21..80,
 |{15},{15},
 |{15},1..8,
 |{15},22..80,
 |{16},{16},
 |{16},1..9,
 |{16},23..80,
 |{17},{17},
 |{17},1..10,
 |{17},24..80,
 |{18},{18},
 |{18},1..11,
 |{18},25..80,
 |{19},{19},
 |{19},1..12,
 |{19},26..80,
 |{20},{20},
 |{20},1..13,
 |{20},27..80,
 |{21},{21},
 |{21},1..14,
 |{21},28..80,
 |{22},{22},
 |{22},1..15,
 |{22},29..80,
 |{23},{23},
 |{23},1..16,
 |{23},30..80,
 |{24},{24},
 |{24},1..17,
 |{24},31..80,
 |{25},{25},
 |{25},1..18,
 |{25},32..80,
 |{26},{26},
 |{26},1..19,
 |{26},33..80,
 |{27},{27},
 |{27},1..20,
 |{27},34..80,
 |{28},{28},
 |{28},1..21,
 |{28},35..80,
 |{29},{29},
 |{29},1..22,
 |{29},36..80,
 |{30},{30},
 |{30},1..23,
 |{30},37..80,
 |{31},{31},
 |{31},1..24,
 |{31},38..80,
 |{32},{32},
 |{32},1..25,
 |{32},39..80,
 |{33},{33},
 |{33},1..26,
 |{33},40..80,
 |{34},{34},
 |{34},1..27,
 |{34},41..80,
 |{35},{35},
 |{35},1..28,
 |{35},42..80,
 |{36},{36},
 |{36},1..29,
 |{36},43..80,
 |{37},{37},
 |{37},1..30,
 |{37},44..80,
 |{38},{38},
 |{38},1..31,
 |{38},45..80,
 |{39},{39},
 |{39},1..32,
 |{39},46..80,
 |{40},{40},
 |{40},1..33,
 |{40},47..80,
 |{41},{41},
 |{41},1..34,
 |{41},48..80,
 |{42},{42},
 |{42},1..35,
 |{42},49..80,
 |{43},{43},
 |{43},1..36,
 |{43},50..80,
 |{44},{44},
 |{44},1..37,
 |{44},51..80,
 |{45},{45},
 |{45},1..38,
 |{45},52..80,
 |{46},{46},
 |{46},1..39,
 |{46},53..80,
 |{47},{47},
 |{47},1..40,
 |{47},54..80,
 |{48},{48},
 |{48},1..41,
 |{48},55..80,
 |{49},{49},
 |{49},1..42,
 |{49},56..80,
 |{50},{50},
 |{50},1..43,
 |{50},57..80,
 |{51},{51},
 |{51},1..44,
 |{51},58..80,
 |{52},{52},
 |{52},1..45,
 |{52},59..80,
 |{53},{53},
 |{53},1..46,
 |{53},60..80,
 |{54},{54},
 |{54},1..47,
 |{54},61..80,
 |{55},{55},
 |{55},1..48,
 |{55},62..80,
 |{56},{56},
 |{56},1..49,
 |{56},63..80,
 |{57},{57},
 |{57},1..50,
 |{57},64..80,
 |{58},{58},
 |{58},1..51,
 |{58},65..80,
 |{59},{59},
 |{59},1..52,
 |{59},66..80,
 |{60},{60},
 |{60},1..53,
 |{60},67..80,
 |{61},{61},
 |{61},1..54,
 |{61},68..80,
 |{62},{62},
 |{62},1..55,
 |{62},69..80,
 |{63},{63},
 |{63},1..56,
 |{63},70..80,
 |{64},{64},
 |{64},1..57,
 |{64},71..80,
 |{65},{65},
 |{65},1..58,
 |{65},72..80,
 |{66},{66},
 |{66},1..59,
 |{66},73..80,
 |{67},{67},
 |{67},1..60,
 |{67},74..80,
 |{68},{68},
 |{68},1..61,
 |{68},75..80,
 |{69},{69},
 |{69},1..62,
 |{69},76..80,
 |{70},{70},
 |{70},1..63,
 |{70},77..80,
 |{71},{71},
 |{71},1..64,
 |{71},78..80,
 |{72},{72},
 |{72},1..65,
 |{72},79..80,
 |{73},{73},
 |{73},1..66,
 |{73},{80},
 |{74},{74},
 |{74},1..67,
 |{75},{75},
 |{75},2..68,
 |{76},{76},
 |{76},3..69,
 |{77},{77},
 |{77},4..70,
 |{78},{78},
 |{78},5..71,
 |{79},{79},
 |{79},6..72,
 |{80},{80},
 |{80},7..73 |];

t = 424;

indexes = [|
    0,4,
  | 0,6,
  | 0,9,
  | 0,17,
  | 0,25,
  | 0,37,
  | 0,54,
  | 0,58,
  | 0,61,
  | 0,70,
  | 0,78,
  | 1,18,
  | 1,27,
  | 1,28,
  | 1,29,
  | 1,41,
  | 1,48,
  | 1,59,
  | 1,60,
  | 1,65,
  | 1,67,
  | 1,69,
  | 2,8,
  | 2,23,
  | 2,32,
  | 2,35,
  | 2,36,
  | 2,39,
  | 2,43,
  | 2,45,
  | 2,49,
  | 2,71,
  | 2,79,
  | 3,28,
  | 3,30,
  | 3,33,
  | 3,48,
  | 3,51,
  | 3,52,
  | 3,55,
  | 3,57,
  | 3,60,
  | 3,65,
  | 3,66,
  | 4,6,
  | 4,14,
  | 4,17,
  | 4,22,
  | 4,25,
  | 4,31,
  | 4,37,
  | 4,54,
  | 4,56,
  | 4,70,
  | 5,9,
  | 5,30,
  | 5,52,
  | 5,57,
  | 5,58,
  | 5,61,
  | 5,62,
  | 5,66,
  | 5,72,
  | 5,74,
  | 5,78,
  | 6,9,
  | 6,17,
  | 6,25,
  | 6,37,
  | 6,54,
  | 6,58,
  | 6,61,
  | 6,70,
  | 6,78,
  | 7,11,
  | 7,13,
  | 7,21,
  | 7,26,
  | 7,46,
  | 7,53,
  | 7,63,
  | 7,64,
  | 7,73,
  | 7,75,
  | 7,77,
  | 8,21,
  | 8,23,
  | 8,35,
  | 8,39,
  | 8,45,
  | 8,46,
  | 8,64,
  | 8,71,
  | 8,77,
  | 8,79,
  | 9,17,
  | 9,58,
  | 9,61,
  | 9,62,
  | 9,70,
  | 9,72,
  | 9,74,
  | 9,78,
  | 10,11,
  | 10,20,
  | 10,26,
  | 10,34,
  | 10,44,
  | 10,63,
  | 10,73,
  | 11,13,
  | 11,20,
  | 11,26,
  | 11,34,
  | 11,44,
  | 11,53,
  | 11,63,
  | 11,73,
  | 11,75,
  | 12,15,
  | 12,18,
  | 12,19,
  | 12,27,
  | 12,29,
  | 12,38,
  | 12,40,
  | 12,41,
  | 12,42,
  | 12,68,
  | 12,76,
  | 13,21,
  | 13,26,
  | 13,46,
  | 13,53,
  | 13,63,
  | 13,64,
  | 13,73,
  | 13,75,
  | 13,77,
  | 14,22,
  | 14,25,
  | 14,31,
  | 14,32,
  | 14,36,
  | 14,37,
  | 14,43,
  | 14,49,
  | 14,54,
  | 14,56,
  | 15,18,
  | 15,19,
  | 15,27,
  | 15,29,
  | 15,38,
  | 15,40,
  | 15,41,
  | 15,42,
  | 15,68,
  | 15,76,
  | 16,24,
  | 16,38,
  | 16,40,
  | 16,42,
  | 16,47,
  | 16,50,
  | 16,68,
  | 17,25,
  | 17,37,
  | 17,54,
  | 17,58,
  | 17,61,
  | 17,70,
  | 17,78,
  | 18,19,
  | 18,27,
  | 18,29,
  | 18,41,
  | 18,59,
  | 18,67,
  | 18,69,
  | 18,76,
  | 19,27,
  | 19,29,
  | 19,38,
  | 19,40,
  | 19,41,
  | 19,42,
  | 19,68,
  | 19,76,
  | 20,26,
  | 20,34,
  | 20,44,
  | 20,63,
  | 20,73,
  | 21,39,
  | 21,45,
  | 21,46,
  | 21,53,
  | 21,64,
  | 21,75,
  | 21,77,
  | 21,79,
  | 22,25,
  | 22,31,
  | 22,32,
  | 22,36,
  | 22,37,
  | 22,43,
  | 22,49,
  | 22,54,
  | 22,56,
  | 23,32,
  | 23,35,
  | 23,36,
  | 23,39,
  | 23,43,
  | 23,45,
  | 23,49,
  | 23,71,
  | 23,79,
  | 24,38,
  | 24,40,
  | 24,42,
  | 24,47,
  | 24,50,
  | 24,68,
  | 25,31,
  | 25,37,
  | 25,54,
  | 25,56,
  | 25,70,
  | 26,34,
  | 26,44,
  | 26,53,
  | 26,63,
  | 26,73,
  | 26,75,
  | 27,29,
  | 27,41,
  | 27,59,
  | 27,67,
  | 27,69,
  | 27,76,
  | 28,33,
  | 28,48,
  | 28,51,
  | 28,55,
  | 28,59,
  | 28,60,
  | 28,65,
  | 28,67,
  | 28,69,
  | 29,41,
  | 29,59,
  | 29,67,
  | 29,69,
  | 29,76,
  | 30,33,
  | 30,51,
  | 30,52,
  | 30,55,
  | 30,57,
  | 30,62,
  | 30,66,
  | 30,72,
  | 30,74,
  | 31,32,
  | 31,36,
  | 31,37,
  | 31,43,
  | 31,49,
  | 31,54,
  | 31,56,
  | 32,35,
  | 32,36,
  | 32,43,
  | 32,49,
  | 32,56,
  | 32,71,
  | 33,48,
  | 33,51,
  | 33,52,
  | 33,55,
  | 33,57,
  | 33,60,
  | 33,65,
  | 33,66,
  | 34,44,
  | 34,63,
  | 34,73,
  | 35,36,
  | 35,39,
  | 35,43,
  | 35,45,
  | 35,49,
  | 35,71,
  | 35,79,
  | 36,43,
  | 36,49,
  | 36,56,
  | 36,71,
  | 37,54,
  | 37,56,
  | 37,70,
  | 38,40,
  | 38,42,
  | 38,47,
  | 38,50,
  | 38,68,
  | 38,76,
  | 39,45,
  | 39,46,
  | 39,64,
  | 39,71,
  | 39,77,
  | 39,79,
  | 40,42,
  | 40,47,
  | 40,50,
  | 40,68,
  | 40,76,
  | 41,59,
  | 41,67,
  | 41,69,
  | 41,76,
  | 42,47,
  | 42,50,
  | 42,68,
  | 42,76,
  | 43,49,
  | 43,56,
  | 43,71,
  | 44,63,
  | 44,73,
  | 45,46,
  | 45,64,
  | 45,71,
  | 45,77,
  | 45,79,
  | 46,53,
  | 46,64,
  | 46,75,
  | 46,77,
  | 46,79,
  | 47,50,
  | 47,68,
  | 48,51,
  | 48,55,
  | 48,59,
  | 48,60,
  | 48,65,
  | 48,67,
  | 48,69,
  | 49,56,
  | 49,71,
  | 50,68,
  | 51,52,
  | 51,55,
  | 51,57,
  | 51,60,
  | 51,65,
  | 51,66,
  | 52,55,
  | 52,57,
  | 52,62,
  | 52,66,
  | 52,72,
  | 52,74,
  | 53,63,
  | 53,64,
  | 53,73,
  | 53,75,
  | 53,77,
  | 54,56,
  | 54,70,
  | 55,57,
  | 55,60,
  | 55,65,
  | 55,66,
  | 57,62,
  | 57,66,
  | 57,72,
  | 57,74,
  | 58,61,
  | 58,62,
  | 58,70,
  | 58,72,
  | 58,74,
  | 58,78,
  | 59,60,
  | 59,65,
  | 59,67,
  | 59,69,
  | 60,65,
  | 60,67,
  | 60,69,
  | 61,62,
  | 61,70,
  | 61,72,
  | 61,74,
  | 61,78,
  | 62,66,
  | 62,72,
  | 62,74,
  | 62,78,
  | 63,73,
  | 63,75,
  | 64,75,
  | 64,77,
  | 64,79,
  | 65,67,
  | 65,69,
  | 66,72,
  | 66,74,
  | 67,69,
  | 68,76,
  | 70,78,
  | 71,79,
  | 72,74,
  | 72,78,
  | 73,75,
  | 74,78,
  | 75,77,
  | 77,79 |];

